371 5
10 10 10 10 10 

0 0 0 0 0 0 5 2 34 46 78 110 
0 0 0 0 0 0 6 3 4 5 6 7 8 
1 0 1 1 0 1 3 11 10 9 
5 0 5 2 0 1 3 18 11 9 
4 0 2 3 0 2 3 18 11 9 
8 0 1 4 0 2 3 14 13 10 
6 0 2 2 0 4 3 14 13 10 
10 0 3 3 0 1 2 10 9 
3 0 2 2 0 2 5 19 17 16 13 12 
3 0 4 2 0 5 5 19 18 17 16 12 
5 0 3 2 0 5 2 15 14 
8 0 2 3 0 1 3 22 21 20 
8 0 2 3 0 3 3 22 21 20 
8 0 3 3 0 6 3 22 21 20 
10 0 3 3 0 3 3 22 21 20 
4 0 2 2 0 1 2 22 20 
4 0 4 2 0 3 2 22 20 
1 0 3 1 0 3 3 24 23 21 
2 0 1 1 0 4 1 20 
3 0 5 4 0 4 3 28 24 23 
7 0 2 5 0 3 4 32 28 26 25 
1 0 4 2 0 1 4 28 26 23 41 
6 0 2 3 0 1 2 27 25 
9 0 2 1 0 2 2 32 26 
2 0 3 3 0 2 2 31 29 
9 0 1 1 0 1 1 27 
5 0 3 3 0 3 2 31 30 
4 0 1 2 0 2 2 31 30 
2 0 2 2 0 4 1 30 
4 0 4 2 0 2 1 33 
9 0 1 5 0 1 1 33 
2 0 2 3 0 2 1 33 
0 0 0 0 0 0 1 268 
0 0 0 0 0 0 4 35 36 38 39 
4 0 0 0 0 1 4 44 42 40 37 
1 0 0 0 0 4 4 42 41 40 225 
5 0 0 0 0 3 1 41 
9 0 0 0 0 3 1 43 
7 0 0 0 0 1 1 40 
4 0 0 0 0 2 1 45 
2 0 0 0 0 3 1 45 
6 0 0 0 0 2 1 45 
3 0 0 0 0 4 1 45 
9 0 0 0 0 2 1 45 
0 0 0 0 0 0 4 142 164 186 208 
0 0 0 0 0 0 7 47 48 51 52 55 75 76 
5 0 1 1 0 1 4 69 56 50 49 
5 0 1 2 0 2 4 74 73 70 53 
7 0 2 3 0 3 3 68 62 53 
5 0 1 4 0 3 4 71 65 59 54 
10 0 1 2 0 1 4 70 69 65 54 
8 0 2 2 0 2 5 72 70 67 58 56 
10 0 4 3 0 3 2 65 54 
5 0 1 2 0 3 3 66 61 57 
2 0 3 5 0 4 3 71 69 59 
5 0 2 4 0 3 3 68 65 63 
9 0 4 3 0 2 1 58 
3 0 4 2 0 1 1 60 
7 0 5 2 0 2 1 61 
1 0 1 1 0 2 1 63 
3 0 3 3 0 3 1 64 
1 0 3 5 0 3 2 67 351 
2 0 3 5 0 1 1 77 
1 0 1 3 0 3 1 77 
6 0 1 1 0 3 1 77 
10 0 4 1 0 4 1 77 
6 0 2 3 0 2 1 77 
7 0 2 1 0 2 1 77 
2 0 4 3 0 3 1 77 
9 0 2 1 0 3 1 77 
4 0 2 1 0 6 1 77 
10 0 6 2 0 1 1 77 
9 0 3 1 0 3 1 77 
2 0 2 3 0 2 1 77 
2 0 2 4 0 1 1 77 
4 0 3 2 0 3 1 77 
0 0 0 0 0 0 1 268 
0 0 0 0 0 0 6 79 80 81 82 83 108 
2 1 1 1 0 0 5 90 87 86 85 84 
10 3 3 2 0 0 5 107 88 87 86 84 
10 1 4 2 0 0 4 94 87 85 84 
4 1 3 2 0 0 4 90 87 86 84 
5 2 3 3 0 0 2 106 85 
1 1 3 3 0 0 3 96 92 89 
1 1 1 3 0 0 3 105 93 88 
2 1 2 3 0 0 6 104 103 102 99 96 94 
8 2 3 3 0 0 2 96 91 
6 2 1 3 0 0 1 91 
4 5 2 2 0 0 1 91 
8 2 3 3 0 0 1 91 
4 3 2 1 0 0 5 104 103 102 99 95 
10 1 3 4 0 0 5 105 103 102 101 95 
5 2 2 3 0 0 5 104 103 102 101 95 
8 3 2 1 0 0 2 105 95 
1 1 2 3 0 0 1 97 
9 3 3 5 0 0 2 105 101 
5 3 3 3 0 0 1 98 
10 3 1 2 0 0 2 100 297 
1 2 3 1 0 0 1 101 
6 5 1 3 0 0 1 109 
10 3 3 2 0 0 1 109 
2 2 3 4 0 0 1 109 
7 3 4 2 0 0 1 109 
9 4 3 4 0 0 1 109 
8 7 2 3 0 0 1 109 
4 3 5 1 0 0 1 109 
9 3 1 2 0 0 1 109 
4 2 3 1 0 0 1 109 
0 0 0 0 0 0 1 268 
0 0 0 0 0 0 6 111 112 113 114 115 140 
8 0 1 0 1 1 4 123 118 117 116 
6 0 3 0 1 2 5 132 123 122 117 116 
3 0 2 0 1 3 4 123 121 117 116 
8 0 2 0 2 1 3 126 118 116 
10 0 1 0 2 6 4 139 126 120 118 
3 0 2 0 7 2 3 125 120 119 
3 0 3 0 1 2 3 127 126 124 
2 0 1 0 3 1 2 122 121 
7 0 1 0 4 2 2 127 124 
9 0 1 0 1 1 1 124 
7 0 1 0 3 3 1 124 
9 0 3 0 2 5 1 124 
10 0 1 0 3 2 1 124 
3 0 4 0 1 1 6 138 137 136 134 131 128 
6 0 3 0 1 3 4 137 131 128 127 
7 0 2 0 2 3 3 135 134 128 
5 0 7 0 2 2 3 136 135 134 
7 0 1 0 4 3 1 129 
10 0 3 0 1 3 1 130 
6 0 4 0 3 1 1 133 
7 0 3 0 3 2 1 135 
4 0 4 0 2 1 1 134 
3 0 4 0 6 6 1 141 
1 0 4 0 2 3 1 141 
7 0 4 0 2 3 1 141 
7 0 1 0 2 3 1 141 
5 0 1 0 4 3 1 141 
2 0 3 0 1 1 1 141 
2 0 2 0 2 2 1 141 
7 0 3 0 6 4 1 141 
0 0 0 0 0 0 1 268 
0 0 0 0 0 0 6 143 144 145 146 147 148 
4 1 0 0 1 0 6 157 153 152 151 150 149 
7 2 0 0 4 0 5 157 153 151 150 149 
2 3 0 0 2 0 5 155 153 152 151 149 
1 2 0 0 1 0 4 153 151 150 149 
3 2 0 0 1 0 4 153 152 151 149 
4 2 0 0 2 0 4 162 161 155 152 
1 1 0 0 1 0 4 162 161 160 154 
3 4 0 0 3 0 3 161 160 155 
9 2 0 0 1 0 3 162 160 156 
6 3 0 0 6 0 2 160 154 
7 4 0 0 1 0 3 161 159 158 
4 2 0 0 4 0 1 156 
8 3 0 0 4 0 1 156 
3 3 0 0 1 0 2 159 158 
8 4 0 0 5 0 2 160 158 
6 5 0 0 3 0 1 163 
5 1 0 0 2 0 1 163 
10 2 0 0 3 0 1 163 
7 3 0 0 4 0 1 163 
2 1 0 0 1 0 1 163 
0 0 0 0 0 0 1 268 
0 0 0 0 0 0 6 165 166 167 168 169 170 
1 1 0 0 0 1 5 179 175 173 172 171 
3 3 0 0 0 2 4 175 173 172 171 
7 2 0 0 0 3 4 176 175 174 173 
7 2 0 0 0 2 3 175 172 171 
3 3 0 0 0 1 3 175 173 171 
9 2 0 0 0 1 5 184 183 182 176 174 
8 3 0 0 0 4 5 184 183 182 178 177 
3 2 0 0 0 3 3 183 182 176 
5 1 0 0 0 2 3 184 182 177 
6 4 0 0 0 1 2 178 177 
7 2 0 0 0 1 3 183 181 180 
7 3 0 0 0 5 1 177 
6 4 0 0 0 1 2 181 180 
5 3 0 0 0 3 2 181 180 
5 1 0 0 0 4 2 182 180 
5 2 0 0 0 3 1 185 
2 2 0 0 0 3 1 185 
1 4 0 0 0 4 1 185 
9 3 0 0 0 2 1 185 
3 3 0 0 0 4 1 185 
0 0 0 0 0 0 1 268 
0 0 0 0 0 0 8 187 188 189 190 191 192 193 196 
6 1 0 0 0 1 3 199 197 195 
9 2 0 0 0 4 3 199 195 194 
8 2 0 0 0 2 2 199 194 
6 1 0 0 0 2 2 199 194 
5 3 0 0 0 3 2 199 194 
10 1 0 0 0 2 2 199 198 
1 3 0 0 0 2 2 199 198 
4 3 0 0 0 6 2 201 198 
7 1 0 0 0 3 2 204 198 
7 4 0 0 0 1 2 204 198 
2 5 0 0 0 3 4 206 204 202 200 
6 5 0 0 0 1 3 206 202 200 
3 1 0 0 0 1 2 203 201 
4 2 0 0 0 2 2 205 203 
4 3 0 0 0 2 2 204 202 
10 2 0 0 0 2 1 207 
5 2 0 0 0 2 1 207 
10 4 0 0 0 4 1 207 
1 3 0 0 0 2 1 207 
5 2 0 0 0 5 1 207 
0 0 0 0 0 0 1 268 
0 0 0 0 0 0 2 209 210 
5 0 0 0 1 0 3 213 212 211 
8 0 0 0 3 0 3 213 212 211 
1 0 0 0 3 0 5 218 217 216 215 214 
5 0 0 0 3 0 5 218 217 216 215 214 
9 0 0 0 5 0 5 218 217 216 215 214 
8 0 0 0 2 0 1 219 
7 0 0 0 4 0 1 219 
8 0 0 0 1 0 1 219 
1 0 0 0 1 0 1 219 
2 0 0 0 2 0 1 219 
0 0 0 0 0 0 4 220 232 244 256 
0 0 0 0 0 0 4 221 222 223 224 
4 0 1 0 0 0 2 226 225 
5 0 2 0 0 0 2 226 225 
1 0 1 0 0 0 2 226 225 
1 0 2 0 0 0 2 226 225 
2 0 5 0 0 0 4 230 229 228 227 
8 0 2 0 0 0 4 230 229 228 227 
6 0 5 0 0 0 1 231 
4 0 3 0 0 0 1 231 
8 0 3 0 0 0 1 231 
10 0 1 0 0 0 1 231 
0 0 0 0 0 0 1 268 
0 0 0 0 0 0 4 233 234 235 237 
9 1 0 0 0 0 4 242 241 238 236 
1 3 0 0 0 0 2 238 236 
8 3 0 0 0 0 2 240 238 
5 3 0 0 0 0 1 239 
6 1 0 0 0 0 1 238 
7 3 0 0 0 0 1 243 
1 3 0 0 0 0 1 243 
10 3 0 0 0 0 1 243 
9 3 0 0 0 0 1 243 
10 2 0 0 0 0 1 243 
0 0 0 0 0 0 1 268 
0 0 0 0 0 0 5 245 246 247 248 251 
6 0 0 1 0 0 3 254 250 249 
3 0 0 1 0 0 3 254 250 249 
1 0 0 2 0 0 2 254 252 
1 0 0 3 0 0 2 253 252 
6 0 0 3 0 0 1 253 
1 0 0 4 0 0 1 252 
2 0 0 2 0 0 1 252 
3 0 0 4 0 0 1 255 
3 0 0 4 0 0 1 255 
9 0 0 1 0 0 1 255 
0 0 0 0 0 0 1 268 
0 0 0 0 0 0 5 257 258 260 265 266 
5 0 0 1 0 0 3 264 261 259 
7 0 0 3 0 0 3 264 263 262 
3 0 0 2 0 0 2 263 262 
9 0 0 4 0 0 2 263 262 
8 0 0 1 0 0 1 262 
10 0 0 2 0 0 1 267 
5 0 0 4 0 0 1 267 
2 0 0 4 0 0 1 267 
6 0 0 2 0 0 1 267 
10 0 0 2 0 0 1 267 
0 0 0 0 0 0 1 268 
0 0 0 0 0 0 4 269 281 303 325 
0 0 0 0 0 0 6 270 271 272 277 278 279 
2 0 0 1 0 0 3 276 275 274 
3 0 0 2 0 0 2 276 273 
4 0 0 6 0 0 2 275 274 
4 0 0 3 0 0 1 274 
6 0 0 3 0 0 1 280 
7 0 0 1 0 0 1 280 
8 0 0 4 0 0 1 280 
1 0 0 2 0 0 1 280 
4 0 0 2 0 0 1 280 
5 0 0 1 0 0 1 280 
0 0 0 0 0 0 2 347 359 
0 0 0 0 0 0 7 282 283 285 286 287 300 301 
3 0 0 1 0 1 5 299 296 291 289 284 
4 0 0 1 0 3 6 298 296 295 292 291 289 
10 0 0 2 0 5 3 298 295 288 
4 0 0 2 0 4 4 298 296 295 289 
1 0 0 3 0 3 4 296 295 291 290 
2 0 0 2 0 3 4 296 295 294 289 
7 0 0 3 0 1 3 297 294 290 
7 0 0 4 0 4 1 290 
9 0 0 5 0 4 1 293 
10 0 0 1 0 3 1 294 
10 0 0 2 0 3 1 297 
6 0 0 2 0 2 1 302 
4 0 0 3 0 2 1 302 
10 0 0 2 0 1 1 302 
2 0 0 2 0 1 1 302 
8 0 0 2 0 1 1 302 
4 0 0 4 0 3 1 302 
1 0 0 4 0 1 1 302 
8 0 0 3 0 2 1 302 
6 0 0 2 0 3 1 302 
0 0 0 0 0 0 1 371 
0 0 0 0 0 0 5 304 305 306 308 311 
3 0 0 1 0 1 4 323 316 312 309 
2 0 0 1 0 1 3 317 312 307 
8 0 0 2 0 1 4 322 316 312 310 
6 0 0 1 0 4 3 323 322 310 
4 0 0 3 0 3 3 322 315 312 
4 0 0 2 0 1 2 322 310 
5 0 0 2 0 4 4 320 315 314 313 
3 0 0 2 0 4 5 323 322 319 318 316 
2 0 0 2 0 3 3 320 314 313 
7 0 0 2 0 4 2 321 318 
3 0 0 2 0 2 1 319 
7 0 0 3 0 2 1 319 
8 0 0 4 0 4 1 320 
3 0 0 6 0 3 1 318 
9 0 0 2 0 1 1 324 
5 0 0 1 0 4 1 324 
5 0 0 5 0 2 1 324 
1 0 0 4 0 1 1 324 
8 0 0 1 0 3 1 324 
10 0 0 4 0 2 1 324 
0 0 0 0 0 0 1 371 
0 0 0 0 0 0 6 326 328 330 332 337 345 
9 1 0 1 0 0 2 334 327 
9 2 0 2 0 0 4 343 342 336 329 
9 3 0 2 0 0 3 342 334 329 
1 2 0 2 0 0 3 344 338 333 
8 3 0 1 0 0 2 335 331 
8 3 0 1 0 0 3 343 339 336 
8 4 0 2 0 0 2 342 334 
7 3 0 6 0 0 3 341 340 339 
7 2 0 3 0 0 1 335 
10 2 0 2 0 0 1 338 
4 3 0 3 0 0 1 338 
8 2 0 2 0 0 1 339 
9 2 0 1 0 0 1 346 
4 1 0 2 0 0 1 346 
8 3 0 5 0 0 1 346 
7 3 0 1 0 0 1 346 
8 1 0 3 0 0 1 346 
3 5 0 2 0 0 1 346 
7 1 0 3 0 0 1 346 
5 4 0 6 0 0 1 346 
0 0 0 0 0 0 1 371 
0 0 0 0 0 0 4 348 355 356 357 
3 0 0 0 0 1 4 354 353 352 349 
5 0 0 0 0 1 2 351 350 
1 0 0 0 0 2 1 358 
6 0 0 0 0 1 1 358 
2 0 0 0 0 2 1 358 
3 0 0 0 0 4 1 358 
7 0 0 0 0 2 1 358 
4 0 0 0 0 6 1 358 
8 0 0 0 0 2 1 358 
4 0 0 0 0 4 1 358 
0 0 0 0 0 0 1 371 
0 0 0 0 0 0 5 360 361 362 363 365 
4 1 0 0 0 0 3 369 366 364 
5 5 0 0 0 0 3 369 366 364 
3 2 0 0 0 0 3 369 368 366 
4 1 0 0 0 0 1 364 
5 2 0 0 0 0 2 368 367 
4 2 0 0 0 0 2 368 367 
6 1 0 0 0 0 1 367 
3 4 0 0 0 0 1 370 
10 3 0 0 0 0 1 370 
6 4 0 0 0 0 1 370 
0 0 0 0 0 0 1 371 
0 0 0 0 0 0 0 
